
<<< setup


<<< generate

CPXPARAM_TimeLimit                               9999
Tried aggregator 1 time.
MIP Presolve eliminated 29 rows and 29 columns.
Reduced MIP has 961 rows, 1771 columns, and 5254 nonzeros.
Reduced MIP has 900 binaries, 871 generals, 0 SOSs, and 0 indicators.
Presolve time = 0,00 sec. (2,90 ticks)
Found incumbent of value 190,866115 after 0,02 sec. (10,97 ticks)
Probing fixed 29 vars, tightened 0 bounds.
Probing time = 0,02 sec. (10,57 ticks)
Cover probing fixed 0 vars, tightened 841 bounds.
Tried aggregator 1 time.
MIP Presolve eliminated 31 rows and 59 columns.
MIP Presolve modified 842 coefficients.
Reduced MIP has 930 rows, 1712 columns, and 5106 nonzeros.
Reduced MIP has 871 binaries, 841 generals, 0 SOSs, and 0 indicators.
Presolve time = 0,01 sec. (5,08 ticks)
Probing time = 0,01 sec. (3,17 ticks)
Clique table members: 60.
MIP emphasis: balance optimality and feasibility.
MIP search method: dynamic search.
Parallel mode: deterministic, using up to 4 threads.
Root relaxation solution time = 0,01 sec. (17,61 ticks)

        Nodes                                         Cuts/
   Node  Left     Objective  IInf  Best Integer    Best Bound    ItCnt     Gap

*     0+    0                          190,8661        0,0000           100,00%
      0     0       42,6925    58      190,8661       42,6925      554   77,63%
*     0+    0                           95,6583       42,6925            55,37%
      0     0       46,6716    95       95,6583      Cuts: 80      703   51,21%
*     0+    0                           69,1711       46,6716            32,53%
      0     0       49,3765   120       69,1711      Cuts: 43      868   28,62%
      0     0       49,5425   129       69,1711      Cuts: 29      989   28,38%
      0     0       49,5507   135       69,1711      Cuts: 10     1015   28,37%
      0     0       49,5629   134       69,1711      Cuts: 14     1064   28,35%
      0     0       49,5679   134       69,1711       Cuts: 8     1079   28,34%
      0     0       49,5688   138       69,1711       Cuts: 4     1086   28,34%
      0     0       49,5689   136       69,1711       Cuts: 3     1103   28,34%
*     0+    0                           65,2333       49,5689            24,01%
*     0+    0                           65,0360       49,5689            23,78%
*     0+    0                           63,8659       49,5689            22,39%
      0     2       49,5689   136       63,8659       49,5689     1103   22,39%
Elapsed time = 0,80 sec. (431,81 ticks, tree = 0,01 MB, solutions = 6)
*    10+    3                           63,0577       49,5689            21,39%
*    10+    2                           57,5674       49,5689            13,89%
    142   103       50,7716    89       57,5674       49,6186     9426   13,81%
*   184   136      integral     0       57,4758       49,6186    12349   13,67%
*   226   180      integral     0       53,6350       49,6186    16622    7,49%
*   275   124      integral     0       53,0073       49,7503    19435    6,14%
*   502+  241                           52,5501       49,7503             5,33%
    809   363       51,3612    99       52,5501       50,1512    39523    4,56%
*  1214   651      integral     0       52,4190       50,5309    53514    3,60%
   1422   756        cutoff             52,4190       50,6736    61258    3,33%
   2133  1141       52,1476    87       52,4190       50,8234    77021    3,04%
   2775  1377        cutoff             52,4190       50,9469    99314    2,81%
   3436  1478       51,9773   122       52,4190       51,1160   122717    2,49%
   4100  1488        cutoff             52,4190       51,2846   143376    2,16%

Cover cuts applied:  14
Implied bound cuts applied:  77
Flow cuts applied:  60
Mixed integer rounding cuts applied:  10
Zero-half cuts applied:  2
Multi commodity flow cuts applied:  2
Lift and project cuts applied:  9
Gomory fractional cuts applied:  7

Root node processing (before b&c):
  Real time             =    0,79 sec. (431,28 ticks)
Parallel b&c, 4 threads:
  Real time             =    4,20 sec. (2279,05 ticks)
  Sync time (average)   =    0,72 sec.
  Wait time (average)   =    0,00 sec.
                          ------------
Total (root+branch&cut) =    4,99 sec. (2710,32 ticks)

<<< solve


OBJECTIVE: 52.41895
12/18/2018 23:57:53 847
solving time ~= 5003.387939453
Done
 [[0 0 0 0 0 0 12 0 0 0 0 0 0 0 0 0 0 0 0 0 0 0 0 0 0 0 0 0 0 0]
         [13 0 0 0 0 0 0 0 0 0 0 0 0 0 0 0 0 0 0 0 0 0 0 0 0 0 0 0 0 0]
         [0 14 0 0 0 0 0 0 0 0 0 0 0 0 0 0 0 0 0 0 0 0 0 0 0 0 0 0 0 0]
         [0 0 15 0 0 0 0 0 0 0 0 0 0 0 0 0 0 0 0 0 0 0 0 0 0 0 0 0 0 0]
         [0 0 0 0 0 0 0 17 0 0 0 0 0 0 0 0 0 0 0 0 0 0 0 0 0 0 0 0 0 0]
         [0 0 0 0 18 0 0 0 0 0 0 0 0 0 0 0 0 0 0 0 0 0 0 0 0 0 0 0 0 0]
         [0 0 0 0 0 0 0 0 11 0 0 0 0 0 0 0 0 0 0 0 0 0 0 0 0 0 0 0 0 0]
         [0 0 0 16 0 0 0 0 0 0 0 0 0 0 0 0 0 0 0 0 0 0 0 0 0 0 0 0 0 0]
         [0 0 0 0 0 0 0 0 0 0 10 0 0 0 0 0 0 0 0 0 0 0 0 0 0 0 0 0 0 0]
         [0 0 0 0 0 19 0 0 0 0 0 0 0 0 0 0 0 0 0 0 0 0 0 0 0 0 0 0 0 0]
         [0 0 0 0 0 0 0 0 0 0 0 0 9 0 0 0 0 0 0 0 0 0 0 0 0 0 0 0 0 0]
         [0 0 0 0 0 0 0 0 0 20 0 0 0 0 0 0 0 0 0 0 0 0 0 0 0 0 0 0 0 0]
         [0 0 0 0 0 0 0 0 0 0 0 0 0 0 0 8 0 0 0 0 0 0 0 0 0 0 0 0 0 0]
         [0 0 0 0 0 0 0 0 0 0 0 21 0 0 0 0 0 0 0 0 0 0 0 0 0 0 0 0 0 0]
         [0 0 0 0 0 0 0 0 0 0 0 0 0 22 0 0 0 0 0 0 0 0 0 0 0 0 0 0 0 0]
         [0 0 0 0 0 0 0 0 0 0 0 0 0 0 0 0 0 0 0 0 0 7 0 0 0 0 0 0 0 0]
         [0 0 0 0 0 0 0 0 0 0 0 0 0 0 0 0 0 3 0 0 0 0 0 0 0 0 0 0 0 0]
         [0 0 0 0 0 0 0 0 0 0 0 0 0 0 0 0 0 0 2 0 0 0 0 0 0 0 0 0 0 0]
         [0 0 0 0 0 0 0 0 0 0 0 0 0 0 0 0 0 0 0 0 0 0 0 1 0 0 0 0 0 0]
         [0 0 0 0 0 0 0 0 0 0 0 0 0 0 23 0 0 0 0 0 0 0 0 0 0 0 0 0 0 0]
         [0 0 0 0 0 0 0 0 0 0 0 0 0 0 0 0 0 0 0 0 0 0 0 0 25 0 0 0 0 0]
         [0 0 0 0 0 0 0 0 0 0 0 0 0 0 0 0 0 0 0 0 0 0 0 0 0 6 0 0 0 0]
         [0 0 0 0 0 0 0 0 0 0 0 0 0 0 0 0 4 0 0 0 0 0 0 0 0 0 0 0 0 0]
         [0 0 0 0 0 0 0 0 0 0 0 0 0 0 0 0 0 0 0 0 0 0 0 0 0 0 30 0 0 0]
         [0 0 0 0 0 0 0 0 0 0 0 0 0 0 0 0 0 0 0 24 0 0 0 0 0 0 0 0 0 0]
         [0 0 0 0 0 0 0 0 0 0 0 0 0 0 0 0 0 0 0 0 0 0 5 0 0 0 0 0 0 0]
         [0 0 0 0 0 0 0 0 0 0 0 0 0 0 0 0 0 0 0 0 0 0 0 0 0 0 0 0 0 29]
         [0 0 0 0 0 0 0 0 0 0 0 0 0 0 0 0 0 0 0 0 26 0 0 0 0 0 0 0 0 0]
         [0 0 0 0 0 0 0 0 0 0 0 0 0 0 0 0 0 0 0 0 0 0 0 0 0 0 0 27 0 0]
         [0 0 0 0 0 0 0 0 0 0 0 0 0 0 0 0 0 0 0 0 0 0 0 0 0 0 0 0 28 0]]

<<< post process


<<< done

